data/MCDM/NO_CORR/GEN_FROM_60/12_ITEMS_1000_GEN/K5012W12.KNP.mps
NAME          BLANK   
ROWS
 N  OBJROW
 L  R0000000
COLUMNS
    C0000000  OBJROW     -754.         R0000000  86.         
    C0000001  OBJROW     -924.         R0000000  722.        
    C0000002  OBJROW     -118.         R0000000  616.        
    C0000003  OBJROW     -543.         R0000000  778.        
    C0000004  OBJROW     -143.         R0000000  634.        
    C0000005  OBJROW     -869.         R0000000  740.        
    C0000006  OBJROW     -227.         R0000000  845.        
    C0000007  OBJROW     -955.         R0000000  111.        
    C0000008  OBJROW     -119.         R0000000  828.        
    C0000009  OBJROW     -975.         R0000000  263.        
    C0000010  OBJROW     -697.         R0000000  390.        
    C0000011  OBJROW     -558.         R0000000  75.         
RHS
    RHS       R0000000  13900.      
BOUNDS
 BV BOUND     C0000000  1.          
 BV BOUND     C0000001  1.          
 BV BOUND     C0000002  1.          
 BV BOUND     C0000003  1.          
 BV BOUND     C0000004  1.          
 BV BOUND     C0000005  1.          
 BV BOUND     C0000006  1.          
 BV BOUND     C0000007  1.          
 BV BOUND     C0000008  1.          
 BV BOUND     C0000009  1.          
 BV BOUND     C0000010  1.          
 BV BOUND     C0000011  1.          
ENDATA
