data/MCDM/NO_CORR/GEN_FROM_60/12_ITEMS_1000_GEN/K5012W12.KNP.txt
N 12
M 13
LC 12
LC 13
LC 14
LC 15
LC 16
LC 17
LC 18
LC 19
LC 20
LC 21
LC 22
LC 23
LR 1
LR 2
LR 3
LR 4
LR 5
LR 6
LR 7
LR 8
LR 9
LR 10
LR 11
LR 12
LR 13
LO -754
LO -924
LO -118
LO -543
LO -143
LO -869
LO -227
LO -955
LO -119
LO -975
LO -697
LO -558
OS 1
IC 400
IC 577
IC 665
IC 293
IC 674
IC 165
IC 894
IC 750
IC 99
IC 812
IC 973
IC 982
IB 3642
